Route #1: 1 111 60 79 30 34 117 92 42 29 141 15 27 106 24 46 101 95 73 50 59 135 58 48 5 1 
Route #2: 1 6 121 66 57 139 137 123 104 62 47 11 18 91 35 90 61 54 97 85 51 99 52 40 1 
Route #3: 1 1 98 31 138 105 76 3 94 75 112 131 39 80 140 113 10 103 38 108 134 67 87 17 41 107 1 
Route #4: 1 86 70 9 16 19 74 100 132 23 37 22 69 63 122 21 125 82 142 55 49 88 20 1 
Route #5: 1 8 2 115 4 130 68 128 25 12 89 65 64 44 81 133 28 56 120 36 109 124 93 1 
Route #6: 1 72 102 53 110 114 43 78 116 136 126 13 84 127 118 45 33 83 7 32 71 1 
Route #7: 1 129 26 119 77 14 96 1 

Cost 22575.5
Time 5.7431


 * Another infos *

 Iterations: 143 Time: 5.7431 sec - 0.0957 min - 0.0016 horas
0.0000 h 0.0957 min
Problem dimension: 143
